$molecule
0 1
  N       2.2067489251     0.0855302203    -0.2145509507
  C       2.9135826353     1.2593286943    -0.0027812137
  N       4.2652638104     1.0886668105     0.2159156548
  C       4.9053163932    -0.1600602604     0.3002460669
  C       4.1794394465    -1.3042327374     0.1083984277
  C       2.8008328283    -1.1790106604    -0.1457698262
  O       1.9895094688    -2.1631196966    -0.5081693674
  H       1.1671162947     0.1478680489    -0.2102961097
  C      -1.1140404905     1.4687501007    -0.1584033894
  N      -2.3707824297     1.8786418804    -0.1492592704
  C      -3.2298672477     0.8559868841    -0.0332088806
  C      -2.9079957313    -0.4970392521     0.0759400779
  C      -1.5260487331    -0.8162794999     0.0598114804
  N      -0.6590691263     0.2007363990    -0.0670130319
  N      -4.0437851749    -1.2777607882     0.1800732802
  C      -5.0235945714    -0.4196277550     0.1342918949
  N      -4.6025318084     0.8874901529     0.0068623434
  N      -1.0835507301    -2.0816040183     0.1726213055
  H      -0.3306951148     2.2322883132    -0.2464804319
  H      -6.0840233649    -0.6711096483     0.1873108299
  H      -5.1776848710     1.7179530212    -0.0489550292
  H      -1.7583195895    -2.8305807436     0.2319098367
  H      -0.0926683951    -2.2930258170     0.1305318550
  O       2.3746131836     2.3470656339    -0.0087438006
  H       5.9681324069    -0.1491569466     0.5341116530
  H       4.7828276501     1.9448349529     0.3621150427
  H       4.6417666558    -2.2893136532     0.1447855379
$end

$rem
JOBTYPE         sp
calc_nac        true
cis_der_numstate  2
CIS_N_ROOTS     4
CIS_TRIPLETS    FALSE
EXCHANGE        wb97x-v
SPIN_FLIP       1
BASIS           def2-SVP
sts_mom         true
$end

$derivative_coupling
comments line
0 1

