$molecule
0 1
N          2.20637        0.07371       -0.21419
C          2.91691        1.24629       -0.00832
N          4.26791        1.07232        0.21204
C          4.90382       -0.17802        0.30332
C          4.17435       -1.32082        0.11696
C          2.79632       -1.19248       -0.13851
O          2.09881       -2.11906       -0.33960
H          1.16698        0.13959       -0.21099
C         -1.10979        1.46846       -0.16756
N         -2.36513        1.88261       -0.16131
C         -3.22767        0.86342       -0.04059
C         -2.91038       -0.49009        0.07562
C         -1.52950       -0.81402        0.06236
N         -0.65906        0.19946       -0.06912
N         -4.04885       -1.26649        0.18279
C         -5.02575       -0.40533        0.13197
N         -4.60024        0.89972       -0.00167
N         -1.09137       -2.08025        0.18191
H         -0.32385        2.22886       -0.25936
H         -6.08704       -0.65298        0.18534
H         -5.17254        1.73183       -0.06214
H         -1.76873       -2.82665        0.24411
H         -0.10120       -2.29532        0.14162
O          2.38142        2.33574       -0.02040
H          5.96652       -0.16940        0.53771
H          4.78841        1.92743        0.35391
H          4.63328       -2.30727        0.15863
$end

$rem
JOBTYPE         opt
EXCHANGE        wb97x-v
SPIN_FLIP       1
BASIS           def2-SVP
MOLDEN_FORMAT 	true
PRINT_ORBITALS 	10
$end

@@@

$molecule
   read
$end

$rem
JOBTYPE         freq
iprint          10000000
EXCHANGE        wb97x-v
SPIN_FLIP       1
BASIS           def2-SVP
$end

