$molecule
0 1
  N       2.1462951566     0.0307071147     0.0435506724
  C       2.8466059952     1.2162698481     0.0370792488
  N       4.2315971416     1.0536516248     0.0645569762
  C       4.8438281406    -0.1747555474     0.0973844996
  C       4.1327557554    -1.3223545312     0.1047476665
  C       2.6690573306    -1.2532427936     0.0760861003
  O       1.9336768050    -2.2323051180     0.0809944162
  H       1.0919438337     0.1232609874     0.0243797147
  C      -1.1298413093     1.5500317210    -0.0173670816
  N      -2.3992770076     1.9202697102    -0.0305520406
  C      -3.2237982869     0.8615032920    -0.0162763569
  C      -2.8608613711    -0.4841749533     0.0087692008
  C      -1.4690688836    -0.7617386566     0.0223224127
  N      -0.6365466396     0.2960328720     0.0067898726
  N      -3.9714534679    -1.3060222019     0.0184354847
  C      -4.9782161465    -0.4778755530    -0.0005869928
  N      -4.5970259991     0.8472074171    -0.0219529174
  N      -0.9753034809    -2.0055720428     0.0483976823
  H      -0.3668908651     2.3407341544    -0.0270945033
  H      -6.0322230946    -0.7660178698    -0.0008726488
  H      -5.1975963998     1.6628697174    -0.0389836133
  H      -1.6254791742    -2.7803536328     0.0594587765
  H       0.0390012709    -2.1650348326     0.0586283621
  O       2.3282275031     2.3118728164     0.0101533412
  H       5.9375603810    -0.1588811874     0.1180387744
  H       4.7697572254     1.9130238377     0.0576643616
  H       4.6069589681    -2.3035500648     0.1314448630
$end

$rem
JOBTYPE         sp
CIS_STATE_DERIV 1
CIS_N_ROOTS     3
CIS_TRIPLETS    FALSE
CIS_MAX_CYCLES 	500
EXCHANGE        wb97x-v
SPIN_FLIP       1
BASIS           def2-SVP
MOLDEN_FORMAT 	true
PRINT_ORBITALS 	10
$end

@@@

$molecule
   read
$end

$rem
JOBTYPE         freq
CIS_STATE_DERIV 1
CIS_N_ROOTS     3
CIS_TRIPLETS    FALSE
iprint          10000000
EXCHANGE        wb97x-v
SPIN_FLIP       1
BASIS           def2-SVP
$end

