$molecule
0 1
  N      2.20637063      0.07370526     -0.21419464
  C      2.91691284      1.24628931     -0.00832065
  N      4.26790858      1.07232487      0.21204385
  C      4.90381633     -0.17801811      0.30331842
  C      4.17434728     -1.32081665      0.11695920
  C      2.79631504     -1.19247868     -0.13850637
  O      1.98181465     -2.17561483     -0.49633604
  H      1.16697866      0.13959394     -0.21099037
  C     -1.10978672      1.46846009     -0.16755897
  N     -2.36513239      1.88261477     -0.16131235
  C     -3.22766618      0.86342209     -0.04059121
  C     -2.91038263     -0.49009249      0.07562420
  C     -1.52950175     -0.81401828      0.06236333
  N     -0.65905592      0.19945965     -0.06911796
  N     -4.04885281     -1.26649114      0.18278961
  C     -5.02574865     -0.40533220      0.13196918
  N     -4.60024220      0.89972293     -0.00166600
  N     -1.09137447     -2.08025195      0.18191219
  H     -0.32385439      2.22886384     -0.25935618
  H     -6.08704364     -0.65297508      0.18533549
  H     -5.17253751      1.73182997     -0.06213736
  H     -1.76873307     -2.82665288      0.24410844
  H     -0.10120310     -2.29531778      0.14162392
  O      2.38142077      2.33574008     -0.02040286
  H      5.96652381     -0.16939646      0.53771418
  H      4.78840974      1.92743139      0.35390863
  H      4.63328352     -2.30726964      0.15862684
$end

$rem
EXCHANGE        wb97x-v
SPIN_FLIP       1
BASIS           def2-SVP
CIS_N_ROOTS          4
CIS_CONVERGENCE      8
MAX_SCF_CYCLES       600
MAX_CIS_CYCLES       50
SCF_ALGORITHM        diis
MEM_STATIC           300
MEM_TOTAL            2000
SYMMETRY             false
SYM_IGNORE           true
CIS_SINGLETS         true
CIS_TRIPLETS         true
CALC_SOC             2
SET_ITER             300
$end

