$molecule
0 3
N    -1.2225703    0.7469250   -0.9384776 
C    -2.3206187   -0.1010146   -0.8828885 
N    -3.5364612    0.5414612   -0.8685501 
C    -3.7185824    1.9306450   -0.7841346 
C    -2.5825458    2.7444942   -0.7756856 
C    -1.3751761    2.1245019   -0.8483928 
O    -0.1236898    2.7623570   -0.9005254 
H    -0.3061058    0.3316634   -0.7155027 
C     1.3886034   -1.6725657   -0.5082756 
N     2.4073042   -2.5130443   -0.3648315 
C     3.4893746   -1.8802657    0.1135316 
C     3.5976032   -0.5318305    0.4438332 
C     2.4454717    0.2522408    0.2535563 
N     1.3509377   -0.3456881   -0.2369054 
N     4.8614529   -0.2167025    0.9092996 
C     5.4998031   -1.3685496    0.8565931 
N     4.7296876   -2.4037571    0.3883080 
N     2.4098131    1.5631929    0.5766967 
H     0.4603976   -2.0838386   -0.8842951 
H     6.5271763   -1.5164414    1.1455087 
H     5.0069545   -3.3626704    0.2661971 
H     3.2758040    2.0183849    0.8018304 
H     1.6213648    2.1203475    0.2937849 
O    -2.2010200   -1.3152821   -0.8636668 
H    -4.7318891    2.2914688   -0.7409007 
H    -4.3283016   -0.0770889   -0.8336166 
H    -2.6616978    3.8188770   -0.7358007 
$end

$rem
JOBTYPE         OPT
GEOM_OPT_MAX_CYCLES 300
CIS_STATE_DERIV 1
CIS_TRIPLETS    TRUE
CIS_SINGLETS    FALSE
CIS_MAX_CYCLES 	500
UNRESTRICTED    TRUE
EXCHANGE        wb97x-v
SPIN_FLIP       1
BASIS           def2-SVP
MOLDEN_FORMAT 	true
PRINT_ORBITALS 	10
MAX_SCF_CYCLES 	500
$end

@@@

$molecule
read
$end

$rem
JOBTYPE         freq
CIS_STATE_DERIV 1
CIS_TRIPLETS    TRUE
CIS_SINGLETS    FALSE
UNRESTRICTED    TRUE
iprint          10000000
EXCHANGE        wb97x-v
SPIN_FLIP       1
BASIS           def2-SVP
$end

